c description: Tseitin formula on , with even charge
c generator: CNFgen (0.9.0)
c copyright: (C) 2012-2020 Massimo Lauria <massimo.lauria@uniroma1.it>
c url: https://massimolauria.net/cnfgen
c
p cnf 30 664
1 2 3 4 5 6 7 -8 0
1 2 3 4 5 6 -7 8 0
1 2 3 4 5 -6 7 8 0
1 2 3 4 5 -6 -7 -8 0
1 2 3 4 -5 6 7 8 0
1 2 3 4 -5 6 -7 -8 0
1 2 3 4 -5 -6 7 -8 0
1 2 3 4 -5 -6 -7 8 0
1 2 3 -4 5 6 7 8 0
1 2 3 -4 5 6 -7 -8 0
1 2 3 -4 5 -6 7 -8 0
1 2 3 -4 5 -6 -7 8 0
1 2 3 -4 -5 6 7 -8 0
1 2 3 -4 -5 6 -7 8 0
1 2 3 -4 -5 -6 7 8 0
1 2 3 -4 -5 -6 -7 -8 0
1 2 -3 4 5 6 7 8 0
1 2 -3 4 5 6 -7 -8 0
1 2 -3 4 5 -6 7 -8 0
1 2 -3 4 5 -6 -7 8 0
1 2 -3 4 -5 6 7 -8 0
1 2 -3 4 -5 6 -7 8 0
1 2 -3 4 -5 -6 7 8 0
1 2 -3 4 -5 -6 -7 -8 0
1 2 -3 -4 5 6 7 -8 0
1 2 -3 -4 5 6 -7 8 0
1 2 -3 -4 5 -6 7 8 0
1 2 -3 -4 5 -6 -7 -8 0
1 2 -3 -4 -5 6 7 8 0
1 2 -3 -4 -5 6 -7 -8 0
1 2 -3 -4 -5 -6 7 -8 0
1 2 -3 -4 -5 -6 -7 8 0
1 -2 3 4 5 6 7 8 0
1 -2 3 4 5 6 -7 -8 0
1 -2 3 4 5 -6 7 -8 0
1 -2 3 4 5 -6 -7 8 0
1 -2 3 4 -5 6 7 -8 0
1 -2 3 4 -5 6 -7 8 0
1 -2 3 4 -5 -6 7 8 0
1 -2 3 4 -5 -6 -7 -8 0
1 -2 3 -4 5 6 7 -8 0
1 -2 3 -4 5 6 -7 8 0
1 -2 3 -4 5 -6 7 8 0
1 -2 3 -4 5 -6 -7 -8 0
1 -2 3 -4 -5 6 7 8 0
1 -2 3 -4 -5 6 -7 -8 0
1 -2 3 -4 -5 -6 7 -8 0
1 -2 3 -4 -5 -6 -7 8 0
1 -2 -3 4 5 6 7 -8 0
1 -2 -3 4 5 6 -7 8 0
1 -2 -3 4 5 -6 7 8 0
1 -2 -3 4 5 -6 -7 -8 0
1 -2 -3 4 -5 6 7 8 0
1 -2 -3 4 -5 6 -7 -8 0
1 -2 -3 4 -5 -6 7 -8 0
1 -2 -3 4 -5 -6 -7 8 0
1 -2 -3 -4 5 6 7 8 0
1 -2 -3 -4 5 6 -7 -8 0
1 -2 -3 -4 5 -6 7 -8 0
1 -2 -3 -4 5 -6 -7 8 0
1 -2 -3 -4 -5 6 7 -8 0
1 -2 -3 -4 -5 6 -7 8 0
1 -2 -3 -4 -5 -6 7 8 0
1 -2 -3 -4 -5 -6 -7 -8 0
-1 2 3 4 5 6 7 8 0
-1 2 3 4 5 6 -7 -8 0
-1 2 3 4 5 -6 7 -8 0
-1 2 3 4 5 -6 -7 8 0
-1 2 3 4 -5 6 7 -8 0
-1 2 3 4 -5 6 -7 8 0
-1 2 3 4 -5 -6 7 8 0
-1 2 3 4 -5 -6 -7 -8 0
-1 2 3 -4 5 6 7 -8 0
-1 2 3 -4 5 6 -7 8 0
-1 2 3 -4 5 -6 7 8 0
-1 2 3 -4 5 -6 -7 -8 0
-1 2 3 -4 -5 6 7 8 0
-1 2 3 -4 -5 6 -7 -8 0
-1 2 3 -4 -5 -6 7 -8 0
-1 2 3 -4 -5 -6 -7 8 0
-1 2 -3 4 5 6 7 -8 0
-1 2 -3 4 5 6 -7 8 0
-1 2 -3 4 5 -6 7 8 0
-1 2 -3 4 5 -6 -7 -8 0
-1 2 -3 4 -5 6 7 8 0
-1 2 -3 4 -5 6 -7 -8 0
-1 2 -3 4 -5 -6 7 -8 0
-1 2 -3 4 -5 -6 -7 8 0
-1 2 -3 -4 5 6 7 8 0
-1 2 -3 -4 5 6 -7 -8 0
-1 2 -3 -4 5 -6 7 -8 0
-1 2 -3 -4 5 -6 -7 8 0
-1 2 -3 -4 -5 6 7 -8 0
-1 2 -3 -4 -5 6 -7 8 0
-1 2 -3 -4 -5 -6 7 8 0
-1 2 -3 -4 -5 -6 -7 -8 0
-1 -2 3 4 5 6 7 -8 0
-1 -2 3 4 5 6 -7 8 0
-1 -2 3 4 5 -6 7 8 0
-1 -2 3 4 5 -6 -7 -8 0
-1 -2 3 4 -5 6 7 8 0
-1 -2 3 4 -5 6 -7 -8 0
-1 -2 3 4 -5 -6 7 -8 0
-1 -2 3 4 -5 -6 -7 8 0
-1 -2 3 -4 5 6 7 8 0
-1 -2 3 -4 5 6 -7 -8 0
-1 -2 3 -4 5 -6 7 -8 0
-1 -2 3 -4 5 -6 -7 8 0
-1 -2 3 -4 -5 6 7 -8 0
-1 -2 3 -4 -5 6 -7 8 0
-1 -2 3 -4 -5 -6 7 8 0
-1 -2 3 -4 -5 -6 -7 -8 0
-1 -2 -3 4 5 6 7 8 0
-1 -2 -3 4 5 6 -7 -8 0
-1 -2 -3 4 5 -6 7 -8 0
-1 -2 -3 4 5 -6 -7 8 0
-1 -2 -3 4 -5 6 7 -8 0
-1 -2 -3 4 -5 6 -7 8 0
-1 -2 -3 4 -5 -6 7 8 0
-1 -2 -3 4 -5 -6 -7 -8 0
-1 -2 -3 -4 5 6 7 -8 0
-1 -2 -3 -4 5 6 -7 8 0
-1 -2 -3 -4 5 -6 7 8 0
-1 -2 -3 -4 5 -6 -7 -8 0
-1 -2 -3 -4 -5 6 7 8 0
-1 -2 -3 -4 -5 6 -7 -8 0
-1 -2 -3 -4 -5 -6 7 -8 0
-1 -2 -3 -4 -5 -6 -7 8 0
1 9 10 11 12 13 14 -15 0
1 9 10 11 12 13 -14 15 0
1 9 10 11 12 -13 14 15 0
1 9 10 11 12 -13 -14 -15 0
1 9 10 11 -12 13 14 15 0
1 9 10 11 -12 13 -14 -15 0
1 9 10 11 -12 -13 14 -15 0
1 9 10 11 -12 -13 -14 15 0
1 9 10 -11 12 13 14 15 0
1 9 10 -11 12 13 -14 -15 0
1 9 10 -11 12 -13 14 -15 0
1 9 10 -11 12 -13 -14 15 0
1 9 10 -11 -12 13 14 -15 0
1 9 10 -11 -12 13 -14 15 0
1 9 10 -11 -12 -13 14 15 0
1 9 10 -11 -12 -13 -14 -15 0
1 9 -10 11 12 13 14 15 0
1 9 -10 11 12 13 -14 -15 0
1 9 -10 11 12 -13 14 -15 0
1 9 -10 11 12 -13 -14 15 0
1 9 -10 11 -12 13 14 -15 0
1 9 -10 11 -12 13 -14 15 0
1 9 -10 11 -12 -13 14 15 0
1 9 -10 11 -12 -13 -14 -15 0
1 9 -10 -11 12 13 14 -15 0
1 9 -10 -11 12 13 -14 15 0
1 9 -10 -11 12 -13 14 15 0
1 9 -10 -11 12 -13 -14 -15 0
1 9 -10 -11 -12 13 14 15 0
1 9 -10 -11 -12 13 -14 -15 0
1 9 -10 -11 -12 -13 14 -15 0
1 9 -10 -11 -12 -13 -14 15 0
1 -9 10 11 12 13 14 15 0
1 -9 10 11 12 13 -14 -15 0
1 -9 10 11 12 -13 14 -15 0
1 -9 10 11 12 -13 -14 15 0
1 -9 10 11 -12 13 14 -15 0
1 -9 10 11 -12 13 -14 15 0
1 -9 10 11 -12 -13 14 15 0
1 -9 10 11 -12 -13 -14 -15 0
1 -9 10 -11 12 13 14 -15 0
1 -9 10 -11 12 13 -14 15 0
1 -9 10 -11 12 -13 14 15 0
1 -9 10 -11 12 -13 -14 -15 0
1 -9 10 -11 -12 13 14 15 0
1 -9 10 -11 -12 13 -14 -15 0
1 -9 10 -11 -12 -13 14 -15 0
1 -9 10 -11 -12 -13 -14 15 0
1 -9 -10 11 12 13 14 -15 0
1 -9 -10 11 12 13 -14 15 0
1 -9 -10 11 12 -13 14 15 0
1 -9 -10 11 12 -13 -14 -15 0
1 -9 -10 11 -12 13 14 15 0
1 -9 -10 11 -12 13 -14 -15 0
1 -9 -10 11 -12 -13 14 -15 0
1 -9 -10 11 -12 -13 -14 15 0
1 -9 -10 -11 12 13 14 15 0
1 -9 -10 -11 12 13 -14 -15 0
1 -9 -10 -11 12 -13 14 -15 0
1 -9 -10 -11 12 -13 -14 15 0
1 -9 -10 -11 -12 13 14 -15 0
1 -9 -10 -11 -12 13 -14 15 0
1 -9 -10 -11 -12 -13 14 15 0
1 -9 -10 -11 -12 -13 -14 -15 0
-1 9 10 11 12 13 14 15 0
-1 9 10 11 12 13 -14 -15 0
-1 9 10 11 12 -13 14 -15 0
-1 9 10 11 12 -13 -14 15 0
-1 9 10 11 -12 13 14 -15 0
-1 9 10 11 -12 13 -14 15 0
-1 9 10 11 -12 -13 14 15 0
-1 9 10 11 -12 -13 -14 -15 0
-1 9 10 -11 12 13 14 -15 0
-1 9 10 -11 12 13 -14 15 0
-1 9 10 -11 12 -13 14 15 0
-1 9 10 -11 12 -13 -14 -15 0
-1 9 10 -11 -12 13 14 15 0
-1 9 10 -11 -12 13 -14 -15 0
-1 9 10 -11 -12 -13 14 -15 0
-1 9 10 -11 -12 -13 -14 15 0
-1 9 -10 11 12 13 14 -15 0
-1 9 -10 11 12 13 -14 15 0
-1 9 -10 11 12 -13 14 15 0
-1 9 -10 11 12 -13 -14 -15 0
-1 9 -10 11 -12 13 14 15 0
-1 9 -10 11 -12 13 -14 -15 0
-1 9 -10 11 -12 -13 14 -15 0
-1 9 -10 11 -12 -13 -14 15 0
-1 9 -10 -11 12 13 14 15 0
-1 9 -10 -11 12 13 -14 -15 0
-1 9 -10 -11 12 -13 14 -15 0
-1 9 -10 -11 12 -13 -14 15 0
-1 9 -10 -11 -12 13 14 -15 0
-1 9 -10 -11 -12 13 -14 15 0
-1 9 -10 -11 -12 -13 14 15 0
-1 9 -10 -11 -12 -13 -14 -15 0
-1 -9 10 11 12 13 14 -15 0
-1 -9 10 11 12 13 -14 15 0
-1 -9 10 11 12 -13 14 15 0
-1 -9 10 11 12 -13 -14 -15 0
-1 -9 10 11 -12 13 14 15 0
-1 -9 10 11 -12 13 -14 -15 0
-1 -9 10 11 -12 -13 14 -15 0
-1 -9 10 11 -12 -13 -14 15 0
-1 -9 10 -11 12 13 14 15 0
-1 -9 10 -11 12 13 -14 -15 0
-1 -9 10 -11 12 -13 14 -15 0
-1 -9 10 -11 12 -13 -14 15 0
-1 -9 10 -11 -12 13 14 -15 0
-1 -9 10 -11 -12 13 -14 15 0
-1 -9 10 -11 -12 -13 14 15 0
-1 -9 10 -11 -12 -13 -14 -15 0
-1 -9 -10 11 12 13 14 15 0
-1 -9 -10 11 12 13 -14 -15 0
-1 -9 -10 11 12 -13 14 -15 0
-1 -9 -10 11 12 -13 -14 15 0
-1 -9 -10 11 -12 13 14 -15 0
-1 -9 -10 11 -12 13 -14 15 0
-1 -9 -10 11 -12 -13 14 15 0
-1 -9 -10 11 -12 -13 -14 -15 0
-1 -9 -10 -11 12 13 14 -15 0
-1 -9 -10 -11 12 13 -14 15 0
-1 -9 -10 -11 12 -13 14 15 0
-1 -9 -10 -11 12 -13 -14 -15 0
-1 -9 -10 -11 -12 13 14 15 0
-1 -9 -10 -11 -12 13 -14 -15 0
-1 -9 -10 -11 -12 -13 14 -15 0
-1 -9 -10 -11 -12 -13 -14 15 0
2 9 16 17 18 19 -20 0
2 9 16 17 18 -19 20 0
2 9 16 17 -18 19 20 0
2 9 16 17 -18 -19 -20 0
2 9 16 -17 18 19 20 0
2 9 16 -17 18 -19 -20 0
2 9 16 -17 -18 19 -20 0
2 9 16 -17 -18 -19 20 0
2 9 -16 17 18 19 20 0
2 9 -16 17 18 -19 -20 0
2 9 -16 17 -18 19 -20 0
2 9 -16 17 -18 -19 20 0
2 9 -16 -17 18 19 -20 0
2 9 -16 -17 18 -19 20 0
2 9 -16 -17 -18 19 20 0
2 9 -16 -17 -18 -19 -20 0
2 -9 16 17 18 19 20 0
2 -9 16 17 18 -19 -20 0
2 -9 16 17 -18 19 -20 0
2 -9 16 17 -18 -19 20 0
2 -9 16 -17 18 19 -20 0
2 -9 16 -17 18 -19 20 0
2 -9 16 -17 -18 19 20 0
2 -9 16 -17 -18 -19 -20 0
2 -9 -16 17 18 19 -20 0
2 -9 -16 17 18 -19 20 0
2 -9 -16 17 -18 19 20 0
2 -9 -16 17 -18 -19 -20 0
2 -9 -16 -17 18 19 20 0
2 -9 -16 -17 18 -19 -20 0
2 -9 -16 -17 -18 19 -20 0
2 -9 -16 -17 -18 -19 20 0
-2 9 16 17 18 19 20 0
-2 9 16 17 18 -19 -20 0
-2 9 16 17 -18 19 -20 0
-2 9 16 17 -18 -19 20 0
-2 9 16 -17 18 19 -20 0
-2 9 16 -17 18 -19 20 0
-2 9 16 -17 -18 19 20 0
-2 9 16 -17 -18 -19 -20 0
-2 9 -16 17 18 19 -20 0
-2 9 -16 17 18 -19 20 0
-2 9 -16 17 -18 19 20 0
-2 9 -16 17 -18 -19 -20 0
-2 9 -16 -17 18 19 20 0
-2 9 -16 -17 18 -19 -20 0
-2 9 -16 -17 -18 19 -20 0
-2 9 -16 -17 -18 -19 20 0
-2 -9 16 17 18 19 -20 0
-2 -9 16 17 18 -19 20 0
-2 -9 16 17 -18 19 20 0
-2 -9 16 17 -18 -19 -20 0
-2 -9 16 -17 18 19 20 0
-2 -9 16 -17 18 -19 -20 0
-2 -9 16 -17 -18 19 -20 0
-2 -9 16 -17 -18 -19 20 0
-2 -9 -16 17 18 19 20 0
-2 -9 -16 17 18 -19 -20 0
-2 -9 -16 17 -18 19 -20 0
-2 -9 -16 17 -18 -19 20 0
-2 -9 -16 -17 18 19 -20 0
-2 -9 -16 -17 18 -19 20 0
-2 -9 -16 -17 -18 19 20 0
-2 -9 -16 -17 -18 -19 -20 0
3 10 16 -21 0
3 10 -16 21 0
3 -10 16 21 0
3 -10 -16 -21 0
-3 10 16 21 0
-3 10 -16 -21 0
-3 -10 16 -21 0
-3 -10 -16 21 0
4 17 22 -23 0
4 17 -22 23 0
4 -17 22 23 0
4 -17 -22 -23 0
-4 17 22 23 0
-4 17 -22 -23 0
-4 -17 22 -23 0
-4 -17 -22 23 0
5 11 24 25 -26 0
5 11 24 -25 26 0
5 11 -24 25 26 0
5 11 -24 -25 -26 0
5 -11 24 25 26 0
5 -11 24 -25 -26 0
5 -11 -24 25 -26 0
5 -11 -24 -25 26 0
-5 11 24 25 26 0
-5 11 24 -25 -26 0
-5 11 -24 25 -26 0
-5 11 -24 -25 26 0
-5 -11 24 25 -26 0
-5 -11 24 -25 26 0
-5 -11 -24 25 26 0
-5 -11 -24 -25 -26 0
6 12 18 24 27 -28 0
6 12 18 24 -27 28 0
6 12 18 -24 27 28 0
6 12 18 -24 -27 -28 0
6 12 -18 24 27 28 0
6 12 -18 24 -27 -28 0
6 12 -18 -24 27 -28 0
6 12 -18 -24 -27 28 0
6 -12 18 24 27 28 0
6 -12 18 24 -27 -28 0
6 -12 18 -24 27 -28 0
6 -12 18 -24 -27 28 0
6 -12 -18 24 27 -28 0
6 -12 -18 24 -27 28 0
6 -12 -18 -24 27 28 0
6 -12 -18 -24 -27 -28 0
-6 12 18 24 27 28 0
-6 12 18 24 -27 -28 0
-6 12 18 -24 27 -28 0
-6 12 18 -24 -27 28 0
-6 12 -18 24 27 -28 0
-6 12 -18 24 -27 28 0
-6 12 -18 -24 27 28 0
-6 12 -18 -24 -27 -28 0
-6 -12 18 24 27 -28 0
-6 -12 18 24 -27 28 0
-6 -12 18 -24 27 28 0
-6 -12 18 -24 -27 -28 0
-6 -12 -18 24 27 28 0
-6 -12 -18 24 -27 -28 0
-6 -12 -18 -24 27 -28 0
-6 -12 -18 -24 -27 28 0
13 22 25 -29 0
13 22 -25 29 0
13 -22 25 29 0
13 -22 -25 -29 0
-13 22 25 29 0
-13 22 -25 -29 0
-13 -22 25 -29 0
-13 -22 -25 29 0
7 14 19 21 23 26 27 29 -30 0
7 14 19 21 23 26 27 -29 30 0
7 14 19 21 23 26 -27 29 30 0
7 14 19 21 23 26 -27 -29 -30 0
7 14 19 21 23 -26 27 29 30 0
7 14 19 21 23 -26 27 -29 -30 0
7 14 19 21 23 -26 -27 29 -30 0
7 14 19 21 23 -26 -27 -29 30 0
7 14 19 21 -23 26 27 29 30 0
7 14 19 21 -23 26 27 -29 -30 0
7 14 19 21 -23 26 -27 29 -30 0
7 14 19 21 -23 26 -27 -29 30 0
7 14 19 21 -23 -26 27 29 -30 0
7 14 19 21 -23 -26 27 -29 30 0
7 14 19 21 -23 -26 -27 29 30 0
7 14 19 21 -23 -26 -27 -29 -30 0
7 14 19 -21 23 26 27 29 30 0
7 14 19 -21 23 26 27 -29 -30 0
7 14 19 -21 23 26 -27 29 -30 0
7 14 19 -21 23 26 -27 -29 30 0
7 14 19 -21 23 -26 27 29 -30 0
7 14 19 -21 23 -26 27 -29 30 0
7 14 19 -21 23 -26 -27 29 30 0
7 14 19 -21 23 -26 -27 -29 -30 0
7 14 19 -21 -23 26 27 29 -30 0
7 14 19 -21 -23 26 27 -29 30 0
7 14 19 -21 -23 26 -27 29 30 0
7 14 19 -21 -23 26 -27 -29 -30 0
7 14 19 -21 -23 -26 27 29 30 0
7 14 19 -21 -23 -26 27 -29 -30 0
7 14 19 -21 -23 -26 -27 29 -30 0
7 14 19 -21 -23 -26 -27 -29 30 0
7 14 -19 21 23 26 27 29 30 0
7 14 -19 21 23 26 27 -29 -30 0
7 14 -19 21 23 26 -27 29 -30 0
7 14 -19 21 23 26 -27 -29 30 0
7 14 -19 21 23 -26 27 29 -30 0
7 14 -19 21 23 -26 27 -29 30 0
7 14 -19 21 23 -26 -27 29 30 0
7 14 -19 21 23 -26 -27 -29 -30 0
7 14 -19 21 -23 26 27 29 -30 0
7 14 -19 21 -23 26 27 -29 30 0
7 14 -19 21 -23 26 -27 29 30 0
7 14 -19 21 -23 26 -27 -29 -30 0
7 14 -19 21 -23 -26 27 29 30 0
7 14 -19 21 -23 -26 27 -29 -30 0
7 14 -19 21 -23 -26 -27 29 -30 0
7 14 -19 21 -23 -26 -27 -29 30 0
7 14 -19 -21 23 26 27 29 -30 0
7 14 -19 -21 23 26 27 -29 30 0
7 14 -19 -21 23 26 -27 29 30 0
7 14 -19 -21 23 26 -27 -29 -30 0
7 14 -19 -21 23 -26 27 29 30 0
7 14 -19 -21 23 -26 27 -29 -30 0
7 14 -19 -21 23 -26 -27 29 -30 0
7 14 -19 -21 23 -26 -27 -29 30 0
7 14 -19 -21 -23 26 27 29 30 0
7 14 -19 -21 -23 26 27 -29 -30 0
7 14 -19 -21 -23 26 -27 29 -30 0
7 14 -19 -21 -23 26 -27 -29 30 0
7 14 -19 -21 -23 -26 27 29 -30 0
7 14 -19 -21 -23 -26 27 -29 30 0
7 14 -19 -21 -23 -26 -27 29 30 0
7 14 -19 -21 -23 -26 -27 -29 -30 0
7 -14 19 21 23 26 27 29 30 0
7 -14 19 21 23 26 27 -29 -30 0
7 -14 19 21 23 26 -27 29 -30 0
7 -14 19 21 23 26 -27 -29 30 0
7 -14 19 21 23 -26 27 29 -30 0
7 -14 19 21 23 -26 27 -29 30 0
7 -14 19 21 23 -26 -27 29 30 0
7 -14 19 21 23 -26 -27 -29 -30 0
7 -14 19 21 -23 26 27 29 -30 0
7 -14 19 21 -23 26 27 -29 30 0
7 -14 19 21 -23 26 -27 29 30 0
7 -14 19 21 -23 26 -27 -29 -30 0
7 -14 19 21 -23 -26 27 29 30 0
7 -14 19 21 -23 -26 27 -29 -30 0
7 -14 19 21 -23 -26 -27 29 -30 0
7 -14 19 21 -23 -26 -27 -29 30 0
7 -14 19 -21 23 26 27 29 -30 0
7 -14 19 -21 23 26 27 -29 30 0
7 -14 19 -21 23 26 -27 29 30 0
7 -14 19 -21 23 26 -27 -29 -30 0
7 -14 19 -21 23 -26 27 29 30 0
7 -14 19 -21 23 -26 27 -29 -30 0
7 -14 19 -21 23 -26 -27 29 -30 0
7 -14 19 -21 23 -26 -27 -29 30 0
7 -14 19 -21 -23 26 27 29 30 0
7 -14 19 -21 -23 26 27 -29 -30 0
7 -14 19 -21 -23 26 -27 29 -30 0
7 -14 19 -21 -23 26 -27 -29 30 0
7 -14 19 -21 -23 -26 27 29 -30 0
7 -14 19 -21 -23 -26 27 -29 30 0
7 -14 19 -21 -23 -26 -27 29 30 0
7 -14 19 -21 -23 -26 -27 -29 -30 0
7 -14 -19 21 23 26 27 29 -30 0
7 -14 -19 21 23 26 27 -29 30 0
7 -14 -19 21 23 26 -27 29 30 0
7 -14 -19 21 23 26 -27 -29 -30 0
7 -14 -19 21 23 -26 27 29 30 0
7 -14 -19 21 23 -26 27 -29 -30 0
7 -14 -19 21 23 -26 -27 29 -30 0
7 -14 -19 21 23 -26 -27 -29 30 0
7 -14 -19 21 -23 26 27 29 30 0
7 -14 -19 21 -23 26 27 -29 -30 0
7 -14 -19 21 -23 26 -27 29 -30 0
7 -14 -19 21 -23 26 -27 -29 30 0
7 -14 -19 21 -23 -26 27 29 -30 0
7 -14 -19 21 -23 -26 27 -29 30 0
7 -14 -19 21 -23 -26 -27 29 30 0
7 -14 -19 21 -23 -26 -27 -29 -30 0
7 -14 -19 -21 23 26 27 29 30 0
7 -14 -19 -21 23 26 27 -29 -30 0
7 -14 -19 -21 23 26 -27 29 -30 0
7 -14 -19 -21 23 26 -27 -29 30 0
7 -14 -19 -21 23 -26 27 29 -30 0
7 -14 -19 -21 23 -26 27 -29 30 0
7 -14 -19 -21 23 -26 -27 29 30 0
7 -14 -19 -21 23 -26 -27 -29 -30 0
7 -14 -19 -21 -23 26 27 29 -30 0
7 -14 -19 -21 -23 26 27 -29 30 0
7 -14 -19 -21 -23 26 -27 29 30 0
7 -14 -19 -21 -23 26 -27 -29 -30 0
7 -14 -19 -21 -23 -26 27 29 30 0
7 -14 -19 -21 -23 -26 27 -29 -30 0
7 -14 -19 -21 -23 -26 -27 29 -30 0
7 -14 -19 -21 -23 -26 -27 -29 30 0
-7 14 19 21 23 26 27 29 30 0
-7 14 19 21 23 26 27 -29 -30 0
-7 14 19 21 23 26 -27 29 -30 0
-7 14 19 21 23 26 -27 -29 30 0
-7 14 19 21 23 -26 27 29 -30 0
-7 14 19 21 23 -26 27 -29 30 0
-7 14 19 21 23 -26 -27 29 30 0
-7 14 19 21 23 -26 -27 -29 -30 0
-7 14 19 21 -23 26 27 29 -30 0
-7 14 19 21 -23 26 27 -29 30 0
-7 14 19 21 -23 26 -27 29 30 0
-7 14 19 21 -23 26 -27 -29 -30 0
-7 14 19 21 -23 -26 27 29 30 0
-7 14 19 21 -23 -26 27 -29 -30 0
-7 14 19 21 -23 -26 -27 29 -30 0
-7 14 19 21 -23 -26 -27 -29 30 0
-7 14 19 -21 23 26 27 29 -30 0
-7 14 19 -21 23 26 27 -29 30 0
-7 14 19 -21 23 26 -27 29 30 0
-7 14 19 -21 23 26 -27 -29 -30 0
-7 14 19 -21 23 -26 27 29 30 0
-7 14 19 -21 23 -26 27 -29 -30 0
-7 14 19 -21 23 -26 -27 29 -30 0
-7 14 19 -21 23 -26 -27 -29 30 0
-7 14 19 -21 -23 26 27 29 30 0
-7 14 19 -21 -23 26 27 -29 -30 0
-7 14 19 -21 -23 26 -27 29 -30 0
-7 14 19 -21 -23 26 -27 -29 30 0
-7 14 19 -21 -23 -26 27 29 -30 0
-7 14 19 -21 -23 -26 27 -29 30 0
-7 14 19 -21 -23 -26 -27 29 30 0
-7 14 19 -21 -23 -26 -27 -29 -30 0
-7 14 -19 21 23 26 27 29 -30 0
-7 14 -19 21 23 26 27 -29 30 0
-7 14 -19 21 23 26 -27 29 30 0
-7 14 -19 21 23 26 -27 -29 -30 0
-7 14 -19 21 23 -26 27 29 30 0
-7 14 -19 21 23 -26 27 -29 -30 0
-7 14 -19 21 23 -26 -27 29 -30 0
-7 14 -19 21 23 -26 -27 -29 30 0
-7 14 -19 21 -23 26 27 29 30 0
-7 14 -19 21 -23 26 27 -29 -30 0
-7 14 -19 21 -23 26 -27 29 -30 0
-7 14 -19 21 -23 26 -27 -29 30 0
-7 14 -19 21 -23 -26 27 29 -30 0
-7 14 -19 21 -23 -26 27 -29 30 0
-7 14 -19 21 -23 -26 -27 29 30 0
-7 14 -19 21 -23 -26 -27 -29 -30 0
-7 14 -19 -21 23 26 27 29 30 0
-7 14 -19 -21 23 26 27 -29 -30 0
-7 14 -19 -21 23 26 -27 29 -30 0
-7 14 -19 -21 23 26 -27 -29 30 0
-7 14 -19 -21 23 -26 27 29 -30 0
-7 14 -19 -21 23 -26 27 -29 30 0
-7 14 -19 -21 23 -26 -27 29 30 0
-7 14 -19 -21 23 -26 -27 -29 -30 0
-7 14 -19 -21 -23 26 27 29 -30 0
-7 14 -19 -21 -23 26 27 -29 30 0
-7 14 -19 -21 -23 26 -27 29 30 0
-7 14 -19 -21 -23 26 -27 -29 -30 0
-7 14 -19 -21 -23 -26 27 29 30 0
-7 14 -19 -21 -23 -26 27 -29 -30 0
-7 14 -19 -21 -23 -26 -27 29 -30 0
-7 14 -19 -21 -23 -26 -27 -29 30 0
-7 -14 19 21 23 26 27 29 -30 0
-7 -14 19 21 23 26 27 -29 30 0
-7 -14 19 21 23 26 -27 29 30 0
-7 -14 19 21 23 26 -27 -29 -30 0
-7 -14 19 21 23 -26 27 29 30 0
-7 -14 19 21 23 -26 27 -29 -30 0
-7 -14 19 21 23 -26 -27 29 -30 0
-7 -14 19 21 23 -26 -27 -29 30 0
-7 -14 19 21 -23 26 27 29 30 0
-7 -14 19 21 -23 26 27 -29 -30 0
-7 -14 19 21 -23 26 -27 29 -30 0
-7 -14 19 21 -23 26 -27 -29 30 0
-7 -14 19 21 -23 -26 27 29 -30 0
-7 -14 19 21 -23 -26 27 -29 30 0
-7 -14 19 21 -23 -26 -27 29 30 0
-7 -14 19 21 -23 -26 -27 -29 -30 0
-7 -14 19 -21 23 26 27 29 30 0
-7 -14 19 -21 23 26 27 -29 -30 0
-7 -14 19 -21 23 26 -27 29 -30 0
-7 -14 19 -21 23 26 -27 -29 30 0
-7 -14 19 -21 23 -26 27 29 -30 0
-7 -14 19 -21 23 -26 27 -29 30 0
-7 -14 19 -21 23 -26 -27 29 30 0
-7 -14 19 -21 23 -26 -27 -29 -30 0
-7 -14 19 -21 -23 26 27 29 -30 0
-7 -14 19 -21 -23 26 27 -29 30 0
-7 -14 19 -21 -23 26 -27 29 30 0
-7 -14 19 -21 -23 26 -27 -29 -30 0
-7 -14 19 -21 -23 -26 27 29 30 0
-7 -14 19 -21 -23 -26 27 -29 -30 0
-7 -14 19 -21 -23 -26 -27 29 -30 0
-7 -14 19 -21 -23 -26 -27 -29 30 0
-7 -14 -19 21 23 26 27 29 30 0
-7 -14 -19 21 23 26 27 -29 -30 0
-7 -14 -19 21 23 26 -27 29 -30 0
-7 -14 -19 21 23 26 -27 -29 30 0
-7 -14 -19 21 23 -26 27 29 -30 0
-7 -14 -19 21 23 -26 27 -29 30 0
-7 -14 -19 21 23 -26 -27 29 30 0
-7 -14 -19 21 23 -26 -27 -29 -30 0
-7 -14 -19 21 -23 26 27 29 -30 0
-7 -14 -19 21 -23 26 27 -29 30 0
-7 -14 -19 21 -23 26 -27 29 30 0
-7 -14 -19 21 -23 26 -27 -29 -30 0
-7 -14 -19 21 -23 -26 27 29 30 0
-7 -14 -19 21 -23 -26 27 -29 -30 0
-7 -14 -19 21 -23 -26 -27 29 -30 0
-7 -14 -19 21 -23 -26 -27 -29 30 0
-7 -14 -19 -21 23 26 27 29 -30 0
-7 -14 -19 -21 23 26 27 -29 30 0
-7 -14 -19 -21 23 26 -27 29 30 0
-7 -14 -19 -21 23 26 -27 -29 -30 0
-7 -14 -19 -21 23 -26 27 29 30 0
-7 -14 -19 -21 23 -26 27 -29 -30 0
-7 -14 -19 -21 23 -26 -27 29 -30 0
-7 -14 -19 -21 23 -26 -27 -29 30 0
-7 -14 -19 -21 -23 26 27 29 30 0
-7 -14 -19 -21 -23 26 27 -29 -30 0
-7 -14 -19 -21 -23 26 -27 29 -30 0
-7 -14 -19 -21 -23 26 -27 -29 30 0
-7 -14 -19 -21 -23 -26 27 29 -30 0
-7 -14 -19 -21 -23 -26 27 -29 30 0
-7 -14 -19 -21 -23 -26 -27 29 30 0
-7 -14 -19 -21 -23 -26 -27 -29 -30 0
8 15 20 28 -30 0
8 15 20 -28 30 0
8 15 -20 28 30 0
8 15 -20 -28 -30 0
8 -15 20 28 30 0
8 -15 20 -28 -30 0
8 -15 -20 28 -30 0
8 -15 -20 -28 30 0
-8 15 20 28 30 0
-8 15 20 -28 -30 0
-8 15 -20 28 -30 0
-8 15 -20 -28 30 0
-8 -15 20 28 -30 0
-8 -15 20 -28 30 0
-8 -15 -20 28 30 0
-8 -15 -20 -28 -30 0